c Instância aleatória para medir comportamento.
p edge 28 51
e 1 14
e 1 16
e 1 26
e 2 10
e 2 14
e 2 16
e 2 19
e 2 21
e 3 9
e 3 10
e 3 11
e 3 16
e 4 8
e 4 12
e 4 15
e 4 19
e 4 23
e 4 26
e 5 20
e 5 22
e 6 21
e 6 22
e 7 13
e 7 21
e 8 17
e 8 26
e 9 22
e 9 23
e 10 13
e 10 28
e 11 27
e 12 24
e 12 26
e 13 15
e 13 17
e 13 18
e 13 19
e 14 26
e 15 16
e 15 26
e 15 27
e 16 17
e 16 24
e 17 23
e 17 26
e 18 27
e 19 22
e 20 24
e 20 27
e 25 27
e 25 28
